
Gurobi 11.0.1 (win64) logging started Thu Mar 14 08:01:43 2024

Set parameter LogFile to value "C:\Projetos\Job_Rotation_Algorithms\Outputs\GurobiLogs\gurobi_log-output-10_ros-c20-CostaMirallesModel-NoExtraConstraint-2.log"
Gurobi Optimizer version 11.0.1 build v11.0.1rc0 (win64 - Windows 10.0 (19045.2))

CPU model: 11th Gen Intel(R) Core(TM) i7-1165G7 @ 2.80GHz, instruction set [SSE2|AVX|AVX2|AVX512]
Thread count: 4 physical cores, 8 logical processors, using up to 1 threads


Gurobi 11.0.1 (win64) logging started Fri Mar 15 00:39:08 2024

Set parameter LogFile to value "C:\Projetos\Job_Rotation_Algorithms\Outputs\GurobiLogs\gurobi_log-output-10_ros-c20-CostaMirallesModel-NoExtraConstraint-2.log"
Gurobi Optimizer version 11.0.1 build v11.0.1rc0 (win64 - Windows 10.0 (19045.2))

CPU model: 11th Gen Intel(R) Core(TM) i7-1165G7 @ 2.80GHz, instruction set [SSE2|AVX|AVX2|AVX512]
Thread count: 4 physical cores, 8 logical processors, using up to 1 threads


Gurobi 11.0.1 (win64) logging started Sat Mar 16 12:25:47 2024

Set parameter LogFile to value "C:\Projetos\Job_Rotation_Algorithms\Outputs\GurobiLogs\gurobi_log-output-10_ros-c20-CostaMirallesModel-NoExtraConstraint-2.log"
Gurobi Optimizer version 11.0.1 build v11.0.1rc0 (win64 - Windows 10.0 (19045.2))

CPU model: 11th Gen Intel(R) Core(TM) i7-1165G7 @ 2.80GHz, instruction set [SSE2|AVX|AVX2|AVX512]
Thread count: 4 physical cores, 8 logical processors, using up to 1 threads


Gurobi 11.0.1 (win64) logging started Sat Mar 16 22:21:39 2024

Set parameter LogFile to value "C:\Projetos\Job_Rotation_Algorithms\Outputs\GurobiLogs\gurobi_log-output-10_ros-c20-CostaMirallesModel-NoExtraConstraint-2.log"
Gurobi Optimizer version 11.0.1 build v11.0.1rc0 (win64 - Windows 10.0 (19045.2))

CPU model: 11th Gen Intel(R) Core(TM) i7-1165G7 @ 2.80GHz, instruction set [SSE2|AVX|AVX2|AVX512]
Thread count: 4 physical cores, 8 logical processors, using up to 1 threads

WLS license 901039 - registered to Bitka Analytics
Optimize a model with 419 rows, 826 columns and 6426 nonzeros
Model fingerprint: 0xeb5950d3
Variable types: 2 continuous, 824 integer (824 binary)
Coefficient statistics:
  Matrix range     [1e+00, 3e+01]
  Objective range  [1e+00, 1e+00]
  Bounds range     [1e+00, 4e+01]
  RHS range        [1e+00, 4e+01]
Presolve removed 45 rows and 147 columns
Presolve time: 0.03s
Presolved: 374 rows, 679 columns, 4811 nonzeros
Variable types: 0 continuous, 679 integer (678 binary)

Root relaxation: objective 5.000000e+01, 386 iterations, 0.02 seconds (0.01 work units)

    Nodes    |    Current Node    |     Objective Bounds      |     Work
 Expl Unexpl |  Obj  Depth IntInf | Incumbent    BestBd   Gap | It/Node Time

     0     0   50.00000    0    8          -   50.00000      -     -    0s
     0     0   50.00000    0   81          -   50.00000      -     -    0s
     0     0   50.00000    0  103          -   50.00000      -     -    0s
     0     0   50.00000    0   88          -   50.00000      -     -    0s
     0     0   50.00000    0   90          -   50.00000      -     -    0s
     0     0   50.00000    0   30          -   50.00000      -     -    0s
     0     0   50.00000    0   63          -   50.00000      -     -    0s
     0     0   50.00000    0   32          -   50.00000      -     -    0s
     0     0   50.00000    0   14          -   50.00000      -     -    0s
     0     2   50.00000    0   14          -   50.00000      -     -    0s
*  344   136              17      44.0000000   50.00000  13.6%  47.5    0s
H  487   191                      46.0000000   50.00000  8.70%  51.9    1s
  1419   158   50.00000   10   21   46.00000   50.00000  8.70%  95.0    5s

Cutting planes:
  Gomory: 1
  Cover: 907
  Implied bound: 45
  Clique: 101
  MIR: 61
  StrongCG: 16
  GUB cover: 15
  Inf proof: 4
  Zero half: 8
  Mod-K: 1
  RLT: 2

Explored 2282 nodes (250996 simplex iterations) in 9.60 seconds (9.70 work units)
Thread count was 1 (of 8 available processors)

Solution count 2: 46 44 

Optimal solution found (tolerance 1.00e-03)
Best objective 4.600000000000e+01, best bound 4.600000000000e+01, gap 0.0000%
